p cnf 15 20
15 13 1 0
15 -12 11 0
15 8 -4 0
-15 6 -2 0
-14 -12 6 0
-14 12 -2 0
14 12 1 0
14 -11 -1 0
-14 9 2 0
-14 -7 -1 0
13 -12 -3 0
13 12 -2 0
-13 -11 -4 0
-13 -10 6 0
-11 -8 5 0
-11 -5 -2 0
9 -7 4 0
-8 -6 5 0
-7 -4 3 0
5 4 -1 0
